Welcome to the CBC MILP Solver 
Version: 2.10.3 
Build Date: Dec 15 2019 

command line - /home/cdmonsalvea/AI_OR_Workflow/.venv/lib/python3.10/site-packages/pulp/solverdir/cbc/linux/64/cbc /tmp/fce9c9e748cc42de9560f3b8d9b2208d-pulp.mps -sec 3600 -timeMode elapsed -branch -printingOptions all -solution /tmp/fce9c9e748cc42de9560f3b8d9b2208d-pulp.sol (default strategy 1)
At line 2 NAME          MODEL
At line 3 ROWS
At line 39 COLUMNS
At line 958 RHS
At line 993 BOUNDS
At line 1011 ENDATA
Problem MODEL has 34 rows, 306 columns and 595 elements
Coin0008I MODEL read with 0 errors
seconds was changed from 1e+100 to 3600
Option for timeMode changed from cpu to elapsed
Continuous objective value is 5.23837e+06 - 0.00 seconds
Cgl0004I processed model has 34 rows, 306 columns (17 integer (17 of which binary)) and 595 elements
Cbc0038I Initial state - 17 integers unsatisfied sum - 1.73934
Cbc0038I Pass   1: suminf.    0.32685 (1) obj. 8.10387e+07 iterations 16
Cbc0038I Solution found of 8.20556e+07
Cbc0038I Relaxing continuous gives 7.82544e+07
Cbc0038I Before mini branch and bound, 0 integers at bound fixed and 256 continuous
Cbc0038I Full problem 34 rows 306 columns, reduced to 32 rows 46 columns
Cbc0038I Mini branch and bound improved solution from 7.82544e+07 to 3.95935e+07 (0.01 seconds)
Cbc0038I Freeing continuous variables gives a solution of 3.67148e+07
Cbc0038I Round again with cutoff of 3.35672e+07
Cbc0038I Pass   2: suminf.    0.67315 (5) obj. 3.35672e+07 iterations 11
Cbc0038I Pass   3: suminf.    0.67315 (5) obj. 3.35672e+07 iterations 0
Cbc0038I Pass   4: suminf.    0.15445 (3) obj. 3.35672e+07 iterations 11
Cbc0038I Pass   5: suminf.    0.55654 (7) obj. 3.35672e+07 iterations 12
Cbc0038I Pass   6: suminf.    0.65458 (6) obj. 3.35672e+07 iterations 14
Cbc0038I Pass   7: suminf.    0.63823 (6) obj. 3.35672e+07 iterations 1
Cbc0038I Pass   8: suminf.    0.57525 (7) obj. 3.35672e+07 iterations 4
Cbc0038I Pass   9: suminf.    1.13847 (7) obj. 3.35672e+07 iterations 3
Cbc0038I Pass  10: suminf.    1.13847 (7) obj. 3.35672e+07 iterations 0
Cbc0038I Pass  11: suminf.    1.14065 (7) obj. 3.35672e+07 iterations 2
Cbc0038I Pass  12: suminf.    1.14065 (7) obj. 3.35672e+07 iterations 0
Cbc0038I Pass  13: suminf.    1.13847 (7) obj. 3.35672e+07 iterations 2
Cbc0038I Pass  14: suminf.    0.24801 (3) obj. 3.35672e+07 iterations 12
Cbc0038I Pass  15: suminf.    0.78262 (5) obj. 3.35672e+07 iterations 9
Cbc0038I Pass  16: suminf.    0.78262 (5) obj. 3.35672e+07 iterations 0
Cbc0038I Pass  17: suminf.    0.88899 (5) obj. 3.35672e+07 iterations 2
Cbc0038I Pass  18: suminf.    0.88899 (5) obj. 3.35672e+07 iterations 0
Cbc0038I Pass  19: suminf.    0.95357 (5) obj. 3.35672e+07 iterations 2
Cbc0038I Pass  20: suminf.    0.46130 (5) obj. 3.35672e+07 iterations 1
Cbc0038I Pass  21: suminf.    0.88899 (5) obj. 3.35672e+07 iterations 1
Cbc0038I Pass  22: suminf.    1.08544 (6) obj. 3.35672e+07 iterations 3
Cbc0038I Pass  23: suminf.    1.08544 (6) obj. 3.35672e+07 iterations 0
Cbc0038I Pass  24: suminf.    0.86705 (6) obj. 3.35672e+07 iterations 1
Cbc0038I Pass  25: suminf.    0.86705 (6) obj. 3.35672e+07 iterations 0
Cbc0038I Pass  26: suminf.    1.08544 (6) obj. 3.35672e+07 iterations 1
Cbc0038I Pass  27: suminf.    0.61829 (3) obj. 3.35672e+07 iterations 15
Cbc0038I Pass  28: suminf.    0.67444 (7) obj. 3.35672e+07 iterations 11
Cbc0038I Pass  29: suminf.    1.13847 (7) obj. 3.35672e+07 iterations 6
Cbc0038I Pass  30: suminf.    1.13847 (7) obj. 3.35672e+07 iterations 0
Cbc0038I Pass  31: suminf.    1.14065 (7) obj. 3.35672e+07 iterations 2
Cbc0038I No solution found this major pass
Cbc0038I Before mini branch and bound, 0 integers at bound fixed and 247 continuous
Cbc0038I Full problem 34 rows 306 columns, reduced to 28 rows 53 columns
Cbc0038I Mini branch and bound improved solution from 3.67148e+07 to 3.61133e+07 (0.03 seconds)
Cbc0038I Freeing continuous variables gives a solution of 3.5622e+07
Cbc0038I Round again with cutoff of 2.79014e+07
Cbc0038I Pass  31: suminf.    0.67315 (5) obj. 2.79014e+07 iterations 0
Cbc0038I Pass  32: suminf.    0.67315 (5) obj. 2.79014e+07 iterations 0
Cbc0038I Pass  33: suminf.    0.44000 (9) obj. 2.79014e+07 iterations 16
Cbc0038I Pass  34: suminf.    1.42203 (9) obj. 2.79014e+07 iterations 15
Cbc0038I Pass  35: suminf.    1.42203 (9) obj. 2.79014e+07 iterations 0
Cbc0038I Pass  36: suminf.    0.83349 (8) obj. 2.79014e+07 iterations 3
Cbc0038I Pass  37: suminf.    0.74026 (8) obj. 2.79014e+07 iterations 1
Cbc0038I Pass  38: suminf.    0.83349 (8) obj. 2.79014e+07 iterations 2
Cbc0038I Pass  39: suminf.    1.43701 (9) obj. 2.79014e+07 iterations 3
Cbc0038I Pass  40: suminf.    1.43701 (9) obj. 2.79014e+07 iterations 0
Cbc0038I Pass  41: suminf.    0.83349 (8) obj. 2.79014e+07 iterations 3
Cbc0038I Pass  42: suminf.    0.79065 (7) obj. 2.79014e+07 iterations 6
Cbc0038I Pass  43: suminf.    0.63461 (7) obj. 2.79014e+07 iterations 1
Cbc0038I Pass  44: suminf.    0.79065 (7) obj. 2.79014e+07 iterations 4
Cbc0038I Pass  45: suminf.    0.66834 (7) obj. 2.79014e+07 iterations 1
Cbc0038I Pass  46: suminf.    0.51145 (7) obj. 2.79014e+07 iterations 6
Cbc0038I Pass  47: suminf.    0.83349 (8) obj. 2.79014e+07 iterations 7
Cbc0038I Pass  48: suminf.    0.74026 (8) obj. 2.79014e+07 iterations 1
Cbc0038I Pass  49: suminf.    0.83349 (8) obj. 2.79014e+07 iterations 2
Cbc0038I Pass  50: suminf.    1.02368 (9) obj. 2.79014e+07 iterations 9
Cbc0038I Pass  51: suminf.    0.93320 (9) obj. 2.79014e+07 iterations 2
Cbc0038I Pass  52: suminf.    1.20270 (9) obj. 2.79014e+07 iterations 6
Cbc0038I Pass  53: suminf.    1.20270 (9) obj. 2.79014e+07 iterations 0
Cbc0038I Pass  54: suminf.    1.13252 (8) obj. 2.79014e+07 iterations 4
Cbc0038I Pass  55: suminf.    1.13252 (8) obj. 2.79014e+07 iterations 0
Cbc0038I Pass  56: suminf.    1.14749 (8) obj. 2.79014e+07 iterations 2
Cbc0038I Pass  57: suminf.    1.14749 (8) obj. 2.79014e+07 iterations 0
Cbc0038I Pass  58: suminf.    1.13252 (8) obj. 2.79014e+07 iterations 2
Cbc0038I Pass  59: suminf.    0.82865 (7) obj. 2.79014e+07 iterations 14
Cbc0038I Pass  60: suminf.    1.12410 (8) obj. 2.79014e+07 iterations 15
Cbc0038I No solution found this major pass
Cbc0038I Before mini branch and bound, 0 integers at bound fixed and 250 continuous
Cbc0038I Full problem 34 rows 306 columns, reduced to 28 rows 50 columns
Cbc0038I Mini branch and bound did not improve solution (0.05 seconds)
Cbc0038I After 0.05 seconds - Feasibility pump exiting with objective of 3.5622e+07 - took 0.03 seconds
Cbc0012I Integer solution of 35621991 found by feasibility pump after 0 iterations and 0 nodes (0.05 seconds)
Cbc0012I Integer solution of 33842194 found by DiveCoefficient after 69 iterations and 0 nodes (0.06 seconds)
Cbc0031I 30 added rows had average density of 39.833333
Cbc0013I At root node, 30 cuts changed objective from 5238373.2 to 32768521 in 9 passes
Cbc0014I Cut generator 0 (Probing) - 2 row cuts average 9.5 elements, 0 column cuts (0 active)  in 0.002 seconds - new frequency is -100
Cbc0014I Cut generator 1 (Gomory) - 31 row cuts average 30.8 elements, 0 column cuts (0 active)  in 0.001 seconds - new frequency is 1
Cbc0014I Cut generator 2 (Knapsack) - 0 row cuts average 0.0 elements, 0 column cuts (0 active)  in 0.000 seconds - new frequency is -100
Cbc0014I Cut generator 3 (Clique) - 0 row cuts average 0.0 elements, 0 column cuts (0 active)  in 0.000 seconds - new frequency is -100
Cbc0014I Cut generator 4 (MixedIntegerRounding2) - 1 row cuts average 69.0 elements, 0 column cuts (0 active)  in 0.001 seconds - new frequency is -100
Cbc0014I Cut generator 5 (FlowCover) - 0 row cuts average 0.0 elements, 0 column cuts (0 active)  in 0.002 seconds - new frequency is -100
Cbc0014I Cut generator 6 (TwoMirCuts) - 39 row cuts average 42.1 elements, 0 column cuts (0 active)  in 0.001 seconds - new frequency is 1
Cbc0010I After 0 nodes, 1 on tree, 33842194 best solution, best possible 32783753 (0.06 seconds)
Cbc0012I Integer solution of 33609172 found by DiveCoefficient after 86 iterations and 1 nodes (0.06 seconds)
Cbc0012I Integer solution of 32851468 found by rounding after 107 iterations and 2 nodes (0.07 seconds)
Cbc0001I Search completed - best objective 32851468.49236014, took 109 iterations and 4 nodes (0.07 seconds)
Cbc0032I Strong branching done 20 times (110 iterations), fathomed 0 nodes and fixed 5 variables
Cbc0035I Maximum depth 1, 0 variables fixed on reduced cost
Cuts at root node changed objective from 5.23837e+06 to 3.27838e+07
Probing was tried 9 times and created 2 cuts of which 0 were active after adding rounds of cuts (0.002 seconds)
Gomory was tried 12 times and created 31 cuts of which 0 were active after adding rounds of cuts (0.001 seconds)
Knapsack was tried 9 times and created 0 cuts of which 0 were active after adding rounds of cuts (0.000 seconds)
Clique was tried 9 times and created 0 cuts of which 0 were active after adding rounds of cuts (0.000 seconds)
MixedIntegerRounding2 was tried 9 times and created 1 cuts of which 0 were active after adding rounds of cuts (0.001 seconds)
FlowCover was tried 9 times and created 0 cuts of which 0 were active after adding rounds of cuts (0.002 seconds)
TwoMirCuts was tried 12 times and created 41 cuts of which 0 were active after adding rounds of cuts (0.001 seconds)
ZeroHalf was tried 1 times and created 0 cuts of which 0 were active after adding rounds of cuts (0.000 seconds)

Result - Optimal solution found

Objective value:                32851468.49236014
Enumerated nodes:               4
Total iterations:               109
Time (CPU seconds):             0.05
Time (Wallclock seconds):       0.07

Option for printingOptions changed from normal to all
Total time (CPU seconds):       0.05   (Wallclock seconds):       0.07

